120
150
44
40
46
45
51
45
44
51
51
40
53
58
48
44
40
52
59
46
45
40
54
57
40
53
53
40
57
40
55
56
41
53
49
47
54
40
40
40
43
53
54
60
51
47
49
56
55
40
40
40
51
45
54
40
40
40
54
49
47
53
53
44
40
40
40
53
55
42
51
45
54
59
46
45
54
46
50
47
46
57
40
54
57
43
50
50
58
42
40
40
40
43
51
57
47
46
49
55
46
44
51
57
44
49
44
53
55
46
49
43
49
60
44
46
45
50
55
43
53
54
